computational_data/solutions/Reg3_n30_s6.sol
Optimal - objective value 14.00000000
      2 r_2                         1                       1
      7 r_7                         1                       1
      9 r_9                         1                       1
     10 r_10                        1                       1
     17 r_17                        1                       1
     22 r_22                        1                       1
     26 r_26                        1                       1
     30 b_0                         1                       1
     38 b_8                         1                       1
     42 b_12                        1                       1
     50 b_20                        1                       1
     53 b_23                        1                       1
     54 b_24                        1                       1
     57 b_27                        1                       1
